(declare-const a Int)
(declare-const a_1 Int)
(declare-const a_2 Int)
(declare-const a_3 Int)
(declare-const a_4 Int)
(declare-const a_5 Int)
(declare-const c Int)
(declare-const c_1 Int)
(declare-const c_2 Int)
(declare-const p1 Int)
(declare-const p1_1 Int)
(declare-const p1_2 Int)
(declare-const p1_3 Int)
(declare-const p1_4 Int)
(declare-const p1_5 Int)
(declare-const p2 Bool)
(declare-const p2_1 Bool)
(declare-const p2_2 Bool)
(declare-const p2_3 Bool)
(declare-const p2_4 Bool)
(declare-const p2_5 Bool)
(assert (>= a 0))
(assert (>= a_1 0))
(assert (>= a_2 0))
(assert (>= a_3 0))
(assert (>= a_4 0))
(assert (>= a_5 0))
(assert (>= c 0))
(assert (>= c_1 0))
(assert (>= c_2 0))
(assert (>= p1 0))
(assert (>= p1_1 0))
(assert (>= p1_2 0))
(assert (>= p1_3 0))
(assert (>= p1_4 0))
(assert (>= p1_5 0))
(assert
 (not
  (=>
   (and (<= p1_5 4) (<= p1_4 4) (<= p1_3 4) (<= p1_2 4) (<= p1_1 4)
    (<= p1 4))
   (=>
    (and (= a_2 (+ a (ite (= p1 1) 1 0) (ite (= p1_1 1) 1 0)))
     (= c_1 (+ c (ite (= p1 3) 1 0) (ite (= p1_1 3) 1 0)))
     (= a_3 (+ a_1 (ite (= p1 2) 1 0) (ite (= p1_1 2) 1 0)))
     (=> (= p1 1) (and (= p1_2 (ite p2 4 0)) (iff p2_2 p2)))
     (=> (= p1 2) (and (= p1_2 (ite p2 3 0)) (iff p2_2 p2)))
     (=> (= p1 3) (and (= p1_2 (ite p2 4 2)) (iff p2_2 p2)))
     (=> (= p1 0) (and (or (= p1_2 1) (= p1_2 2)) p2_2))
     (=> (and (= p1 0) (= p1_2 1)) (<= a_1 a))
     (=> (and (= p1 0) (= p1_2 2)) (<= a a_1))
     (=> (= p1 4) (and (or (= p1_2 1) (= p1_2 3)) (not p2_2)))
     (=> (and (= p1 4) (= p1_2 1)) (<= c a))
     (=> (and (= p1 4) (= p1_2 3)) (<= a c))
     (=> (= p1_1 1) (and (= p1_3 (ite p2_1 4 0)) (iff p2_3 p2_1)))
     (=> (= p1_1 2) (and (= p1_3 (ite p2_1 3 0)) (iff p2_3 p2_1)))
     (=> (= p1_1 3) (and (= p1_3 (ite p2_1 4 2)) (iff p2_3 p2_1)))
     (=> (= p1_1 0) (and (or (= p1_3 1) (= p1_3 2)) p2_3))
     (=> (and (= p1_1 0) (= p1_3 1)) (<= a_1 a))
     (=> (and (= p1_1 0) (= p1_3 2)) (<= a a_1))
     (=> (= p1_1 4) (and (or (= p1_3 1) (= p1_3 3)) (not p2_3)))
     (=> (and (= p1_1 4) (= p1_3 1)) (<= c a))
     (=> (and (= p1_1 4) (= p1_3 3)) (<= a c))
     (= a_4 (+ a_2 (ite (= p1_2 1) 1 0) (ite (= p1_3 1) 1 0)))
     (= c_2 (+ c_1 (ite (= p1_2 3) 1 0) (ite (= p1_3 3) 1 0)))
     (= a_5 (+ a_3 (ite (= p1_2 2) 1 0) (ite (= p1_3 2) 1 0)))
     (=> (= p1_2 1) (and (= p1_4 (ite p2_2 4 0)) (iff p2_4 p2_2)))
     (=> (= p1_2 2) (and (= p1_4 (ite p2_2 3 0)) (iff p2_4 p2_2)))
     (=> (= p1_2 3) (and (= p1_4 (ite p2_2 4 2)) (iff p2_4 p2_2)))
     (=> (= p1_2 0) (and (or (= p1_4 1) (= p1_4 2)) p2_4))
     (=> (and (= p1_2 0) (= p1_4 1)) (<= a_3 a_2))
     (=> (and (= p1_2 0) (= p1_4 2)) (<= a_2 a_3))
     (=> (= p1_2 4) (and (or (= p1_4 1) (= p1_4 3)) (not p2_4)))
     (=> (and (= p1_2 4) (= p1_4 1)) (<= c_1 a_2))
     (=> (and (= p1_2 4) (= p1_4 3)) (<= a_2 c_1))
     (=> (= p1_3 1) (and (= p1_5 (ite p2_3 4 0)) (iff p2_5 p2_3)))
     (=> (= p1_3 2) (and (= p1_5 (ite p2_3 3 0)) (iff p2_5 p2_3)))
     (=> (= p1_3 3) (and (= p1_5 (ite p2_3 4 2)) (iff p2_5 p2_3)))
     (=> (= p1_3 0) (and (or (= p1_5 1) (= p1_5 2)) p2_5))
     (=> (and (= p1_3 0) (= p1_5 1)) (<= a_3 a_2))
     (=> (and (= p1_3 0) (= p1_5 2)) (<= a_2 a_3))
     (=> (= p1_3 4) (and (or (= p1_5 1) (= p1_5 3)) (not p2_5)))
     (=> (and (= p1_3 4) (= p1_5 1)) (<= c_1 a_2))
     (=> (and (= p1_3 4) (= p1_5 3)) (<= a_2 c_1))
     (> a (ite (<= a_1 c) c a_1)) (> a_2 (ite (<= a_3 c_1) c_1 a_3)))
    (> a_4 (ite (<= a_5 c_2) c_2 a_5))))))
(check-sat)
